p wcnf 178 89 90 
1 -123 87 0 
1 -58 -86 0 
1 4 128 0 
1 -78 127 0 
1 11 -82 0 
1 -64 -26 0 
1 153 -88 0 
1 -175 65 0 
1 80 113 0 
1 123 20 0 
1 42 31 0 
1 -93 135 0 
1 -147 -64 0 
1 -119 -161 0 
1 -79 -60 0 
1 166 -128 0 
1 44 -18 0 
1 70 -154 0 
1 -166 -69 0 
1 134 -169 0 
1 51 -101 0 
1 149 -27 0 
1 -123 152 0 
1 -51 119 0 
1 114 5 0 
1 64 -27 0 
1 -28 -63 0 
1 -178 164 0 
1 -107 159 0 
1 153 -146 0 
1 -12 -166 0 
1 24 -167 0 
1 131 -59 0 
1 -19 -137 0 
1 74 171 0 
1 -156 134 0 
1 82 -78 0 
1 -152 -115 0 
1 75 -170 0 
1 -125 57 0 
1 -88 33 0 
1 -105 69 0 
1 -81 137 0 
1 140 -59 0 
1 54 105 0 
1 -24 -23 0 
1 124 -107 0 
1 -97 -56 0 
1 120 142 0 
1 9 171 0 
1 131 -86 0 
1 -14 28 0 
1 -167 -58 0 
1 127 -48 0 
1 39 -86 0 
1 115 141 0 
1 99 -55 0 
1 -142 107 0 
1 -80 163 0 
1 172 83 0 
1 -159 28 0 
1 143 85 0 
1 131 -104 0 
1 -77 123 0 
1 -141 41 0 
1 -93 50 0 
1 -164 66 0 
1 109 39 0 
1 -138 25 0 
1 -118 28 0 
1 -129 -135 0 
1 171 6 0 
1 42 106 0 
1 -22 -159 0 
1 126 -115 0 
1 -165 92 0 
1 -72 -7 0 
1 -140 146 0 
1 -52 -67 0 
1 -67 110 0 
1 -152 150 0 
1 -75 134 0 
1 142 140 0 
1 163 -32 0 
1 -130 160 0 
1 159 -79 0 
1 56 -74 0 
1 147 21 0 
1 -58 -178 0 
